Minimize
  - y_0 - 5 y_1 - 3 y_2 - 3 y_3 - 5 y_4 - 7 y_5 - 7 y_6 - 4 y_7 - 4 y_8
   - y_9 - 4 y_10 - 5 y_11 - 5 y_12 - 2 y_13 - 3 y_14 - 4 y_15 - 5 y_16
   - 2 y_17 - 4 y_18 - 2 y_19 - 4 y_20 - 4 y_21 - 5 y_22 - 5 y_23 - 5 y_24
   - 5 y_25 - 3 y_26 - 4 y_27 - 3 y_28 - 3 y_29 - 4 y_30 - 3 y_31 - 4 y_33
   - 7 y_34 - 4 y_35 - 4 y_36 - 3 y_37 - 2 y_38 - 4 y_39 - 4 y_40 - 4 y_41
   - 5 y_42 - 3 y_43 - 6 y_44 - 5 y_45 - 3 y_46 - 3 y_47 - 4 y_48 - 2 y_49
   - 2 y_50 - 6 y_51 - 4 y_52 - 4 y_53 - 5 y_54 - 6 y_55 - 6 y_56 - 3 y_57
   - 5 y_58 - 4 y_59 - 5 y_60 - 4 y_61 - 5 y_62 - 4 y_63 - 3 y_64 - 4 y_65
   - 2 y_66 - 2 y_67 - 7 y_68 - 6 y_69 - 3 y_70 - 2 y_71 - 8 y_72 - 4 y_73
   - 3 y_74 - 5 y_75 - 5 y_76 - 3 y_77 - 5 y_78 - 6 y_79 - 4 y_80 - 4 y_81
   - 4 y_82 - 4 y_83 - 4 y_84 - 4 y_85 - 5 y_86 - 2 y_87 - 5 y_88 - 6 y_89
   - 2 y_90 - 4 y_91 - 2 y_92 - 5 y_93 - 2 y_94 - 3 y_95 - 2 y_96 - 3 y_97
   - 5 y_98 - 3 y_99 + 395 Constant
Subject To
 c_0: y_85 = 1
 c_1_0: y_0 >= 1
 c_1_1: y_1 >= 1
 c_1_2: y_2 >= 1
 c_1_3: y_3 >= 1
 c_1_4: y_4 >= 1
 c_1_5: y_5 + y_34 + y_68 >= 1
 c_1_6: y_6 + y_55 >= 1
 c_1_7: y_7 >= 1
 c_1_8: y_8 + y_35 + y_53 >= 1
 c_1_9: y_9 >= 1
 c_1_10: y_10 + y_35 + y_53 >= 1
 c_1_11: y_11 + y_25 >= 1
 c_1_12: y_12 >= 1
 c_1_13: y_13 + y_19 + y_71 >= 1
 c_1_14: y_14 >= 1
 c_1_15: y_15 + y_81 >= 1
 c_1_16: y_16 + y_18 + y_93 >= 1
 c_1_17: y_17 >= 1
 c_1_18: y_16 + y_18 + y_85 >= 1
 c_1_19: y_13 + y_19 + y_71 >= 1
 c_1_20: y_20 >= 1
 c_1_21: y_21 >= 1
 c_1_22: y_22 >= 1
 c_1_23: y_23 + y_27 + y_41 >= 1
 c_1_24: y_24 + y_78 + y_98 >= 1
 c_1_25: y_11 + y_25 >= 1
 c_1_26: y_26 >= 1
 c_1_27: y_23 + y_27 + y_41 >= 1
 c_1_28: y_28 >= 1
 c_1_29: y_29 >= 1
 c_1_30: y_30 >= 1
 c_1_31: y_31 + y_37 + y_97 + y_99 >= 1
 c_1_32: y_32 >= 1
 c_1_33: y_33 + y_86 >= 1
 c_1_34: y_5 + y_34 >= 1
 c_1_35: y_8 + y_10 + y_35 + y_53 >= 1
 c_1_36: y_36 >= 1
 c_1_37: y_31 + y_37 + y_95 + y_97 + y_99 >= 1
 c_1_38: y_38 >= 1
 c_1_39: y_39 + y_83 >= 1
 c_1_40: y_40 + y_65 >= 1
 c_1_41: y_23 + y_27 + y_41 >= 1
 c_1_42: y_42 >= 1
 c_1_43: y_43 >= 1
 c_1_44: y_44 >= 1
 c_1_45: y_45 >= 1
 c_1_46: y_46 >= 1
 c_1_47: y_47 >= 1
 c_1_48: y_48 >= 1
 c_1_49: y_49 + y_90 >= 1
 c_1_50: y_50 + y_57 >= 1
 c_1_51: y_51 + y_89 >= 1
 c_1_52: y_52 >= 1
 c_1_53: y_8 + y_10 + y_35 + y_53 >= 1
 c_1_54: y_54 >= 1
 c_1_55: y_6 + y_55 >= 1
 c_1_56: y_56 + y_79 >= 1
 c_1_57: y_50 + y_57 >= 1
 c_1_58: y_58 >= 1
 c_1_59: y_59 + y_88 >= 1
 c_1_60: y_60 >= 1
 c_1_61: y_61 >= 1
 c_1_62: y_62 >= 1
 c_1_63: y_63 >= 1
 c_1_64: y_64 >= 1
 c_1_65: y_40 + y_65 >= 1
 c_1_66: y_66 + y_96 >= 1
 c_1_67: y_67 >= 1
 c_1_68: y_5 + y_68 >= 1
 c_1_69: y_69 + y_89 >= 1
 c_1_70: y_70 >= 1
 c_1_71: y_13 + y_19 + y_71 >= 1
 c_1_72: y_72 >= 1
 c_1_73: y_73 >= 1
 c_1_74: y_74 >= 1
 c_1_75: y_75 >= 1
 c_1_76: y_76 >= 1
 c_1_77: y_77 >= 1
 c_1_78: y_24 + y_78 >= 1
 c_1_79: y_56 + y_79 >= 1
 c_1_80: y_80 >= 1
 c_1_81: y_15 + y_81 >= 1
 c_1_82: y_82 >= 1
 c_1_83: y_39 + y_83 >= 1
 c_1_84: y_84 >= 1
 c_1_85: y_18 + y_85 >= 1
 c_1_86: y_33 + y_86 >= 1
 c_1_87: y_87 >= 1
 c_1_88: y_59 + y_88 >= 1
 c_1_89: y_51 + y_69 + y_89 >= 1
 c_1_90: y_49 + y_90 >= 1
 c_1_91: y_91 >= 1
 c_1_92: y_92 >= 1
 c_1_93: y_16 + y_93 >= 1
 c_1_94: y_94 >= 1
 c_1_95: y_37 + y_95 + y_99 >= 1
 c_1_96: y_66 + y_96 >= 1
 c_1_97: y_31 + y_37 + y_97 + y_99 >= 1
 c_1_98: y_24 + y_98 >= 1
 c_1_99: y_31 + y_37 + y_95 + y_97 + y_99 >= 1
Bounds
 Constant = 1
Binaries
 y_0 y_1 y_2 y_3 y_4 y_5 y_6 y_7 y_8 y_9 y_10 y_11 y_12 y_13 y_14 y_15 y_16
 y_17 y_18 y_19 y_20 y_21 y_22 y_23 y_24 y_25 y_26 y_27 y_28 y_29 y_30 y_31
 y_32 y_33 y_34 y_35 y_36 y_37 y_38 y_39 y_40 y_41 y_42 y_43 y_44 y_45 y_46
 y_47 y_48 y_49 y_50 y_51 y_52 y_53 y_54 y_55 y_56 y_57 y_58 y_59 y_60 y_61
 y_62 y_63 y_64 y_65 y_66 y_67 y_68 y_69 y_70 y_71 y_72 y_73 y_74 y_75 y_76
 y_77 y_78 y_79 y_80 y_81 y_82 y_83 y_84 y_85 y_86 y_87 y_88 y_89 y_90 y_91
 y_92 y_93 y_94 y_95 y_96 y_97 y_98 y_99
End
